30
92
5
89
47
33
88
88
0 3
0 7
0 8
0 10
0 14
0 16
0 17
0 28
0 29
1 2
1 6
1 17
2 8
2 19
2 25
2 26
3 10
3 21
3 23
3 29
4 20
4 22
5 7
5 10
5 12
5 14
5 23
5 24
6 19
7 9
7 10
7 12
7 18
7 22
8 19
8 23
8 26
8 27
9 12
9 15
9 16
9 18
9 21
9 25
10 13
10 20
10 24
10 29
11 17
11 21
11 22
11 27
12 15
12 23
12 27
13 17
13 18
13 22
13 26
13 29
14 17
14 19
14 20
14 22
14 29
15 25
15 28
16 22
17 19
17 21
17 26
19 20
19 22
19 23
19 24
20 22
20 26
20 28
21 23
21 24
21 26
21 27
23 24
23 26
23 29
24 26
24 29
25 28
25 29
26 27
27 28
27 29
14 27 20 23 24 0 7
4 12 13 10 1 16 3
6 2 18 9 21 8 5
29 28 17 25 26 22 19
11 15
